projected/problems_b25_r0_d7_m100_s666/_DIMACS/b25_d7_r0_s666_081.cnf
p cnf 206 305 25
c p show 1 2 3 4 5 6 7 8 9 10 11 12 13 14 15 16 17 18 19 20 21 22 23 24 25
-94 -1 22 0
-95 8 -23 0
-96 95 94 0
-97 -10 19 0
-98 14 -11 0
-99 98 97 0
-100 99 0
-100 96 0
-101 18 0
-101 13 0
-102 -5 4 0
-103 102 0
-103 101 0
-104 -17 21 0
-105 23 -2 0
-106 105 104 0
-107 106 103 0
-108 107 100 0
-109 -18 -13 0
-110 5 0
-110 -4 0
-111 110 109 0
-112 17 0
-112 -21 0
-113 -23 0
-113 2 0
-114 113 0
-114 112 0
-115 114 0
-115 111 0
-116 1 0
-116 -22 0
-117 -8 0
-117 23 0
-118 117 0
-118 116 0
-119 10 0
-119 -19 0
-120 -14 0
-120 11 0
-121 120 0
-121 119 0
-122 121 118 0
-123 122 115 0
-124 123 0
-124 108 0
-125 -14 0
-125 -15 0
-126 18 0
-126 9 0
-127 126 125 0
-128 13 0
-128 -24 0
-129 24 4 0
-130 129 128 0
-131 130 127 0
-132 3 -2 0
-133 -14 6 0
-134 133 0
-134 132 0
-135 9 0
-135 23 0
-136 11 0
-136 8 0
-137 -8 0
-137 -11 0
-138 137 136 0
-139 138 135 0
-140 139 134 0
-141 140 131 0
-142 141 124 0
-144 24 0
-144 21 0
-145 -21 0
-145 -24 0
-146 145 144 0
-147 15 0
-147 9 0
-148 147 0
-148 146 0
-150 -22 -1 0
-151 4 -24 0
-152 151 0
-152 150 0
-153 152 148 0
-154 20 22 0
-156 2 0
-156 12 0
-157 156 154 0
-158 -7 5 0
-159 -10 -1 0
-160 159 0
-160 158 0
-162 160 0
-162 157 0
-163 162 0
-163 153 0
-164 -25 0
-164 20 0
-165 19 18 0
-166 165 0
-166 164 0
-168 -20 0
-168 10 0
-169 -25 0
-169 8 0
-170 169 0
-170 168 0
-171 170 0
-171 166 0
-172 -5 0
-172 25 0
-174 14 4 0
-175 174 0
-175 172 0
-176 16 -6 0
-177 25 0
-177 -5 0
-178 177 0
-178 176 0
-180 178 0
-180 175 0
-181 180 171 0
-182 181 163 0
-183 182 142 0
-184 -22 0
-184 -13 0
-186 16 0
-186 -9 0
-187 186 184 0
-188 -1 0
-188 -20 0
-189 5 2 0
-190 189 188 0
-191 -5 0
-191 -2 0
-192 1 20 0
-193 192 191 0
-194 193 0
-194 190 0
-195 194 0
-195 187 0
-196 -3 2 0
-197 -10 2 0
-198 197 196 0
-199 -12 0
-199 24 0
-200 8 0
-200 12 0
-201 200 199 0
-202 201 0
-202 198 0
-203 202 195 0
-204 -12 15 0
-205 9 0
-205 -24 0
-206 24 0
-206 -9 0
-26 206 205 0
-143 26 204 0
-149 25 16 0
-155 -16 -25 0
-161 155 0
-161 149 0
-167 -13 0
-167 -14 0
-173 167 161 0
-179 173 0
-179 143 0
-185 -25 19 0
-27 -11 0
-27 -19 0
-28 27 0
-28 185 0
-29 -11 0
-29 -4 0
-30 5 22 0
-31 30 29 0
-32 31 28 0
-33 32 0
-33 179 0
-34 33 0
-34 203 0
-35 -12 0
-35 -9 0
-36 23 0
-36 10 0
-37 36 35 0
-38 24 0
-38 -8 0
-39 38 0
-39 150 0
-40 39 0
-40 37 0
-41 14 0
-41 -21 0
-42 -9 13 0
-43 42 41 0
-44 9 0
-44 -13 0
-45 -14 21 0
-46 45 44 0
-47 46 0
-47 43 0
-48 22 0
-48 -16 0
-49 -19 2 0
-50 49 48 0
-51 50 47 0
-52 51 40 0
-53 -6 0
-53 24 0
-54 -24 0
-54 6 0
-55 54 53 0
-56 4 0
-56 23 0
-57 56 55 0
-58 -4 -23 0
-59 6 -24 0
-60 24 -6 0
-61 60 0
-61 59 0
-62 61 58 0
-63 62 0
-63 57 0
-64 -5 20 0
-65 -12 12 0
-66 65 0
-66 64 0
-67 66 0
-67 63 0
-68 -14 0
-68 25 0
-69 -25 0
-69 14 0
-70 69 68 0
-71 9 0
-71 -23 0
-72 71 70 0
-73 12 0
-73 -24 0
-74 24 0
-74 -12 0
-75 74 73 0
-76 -7 4 0
-77 76 75 0
-78 77 72 0
-79 -12 24 0
-80 -24 12 0
-81 80 0
-81 79 0
-82 7 0
-82 -4 0
-83 82 0
-83 81 0
-84 14 -25 0
-85 25 -14 0
-86 85 0
-86 84 0
-87 -9 23 0
-88 87 0
-88 86 0
-89 88 83 0
-90 89 0
-90 78 0
-91 90 0
-91 67 0
-92 91 52 0
-93 92 34 0
93 183 0
-109 -101 0
-110 -102 0
-111 -103 0
-103 -111 0
-112 -104 0
-113 -105 0
-114 -106 0
-106 -114 0
-107 -115 0
-115 -107 0
-116 -94 0
-117 -95 0
-118 -96 0
-96 -118 0
-97 -119 0
-98 -120 0
-99 -121 0
-100 -122 0
-189 -191 0
-191 -189 0
-192 -188 0
-188 -192 0
-44 -42 0
-41 -45 0
-58 -56 0
-61 -55 0
-55 -61 0
-81 -75 0
-82 -76 0
-83 -77 0
-86 -70 0
-70 -86 0
-71 -87 0
-72 -88 0
