projected/problems_b25_r0_d7_m100_s666/b25_d7_r0_s666_081.smt2
(set-logic QF_UF)
(declare-fun A0 () Bool)
(declare-fun A1 () Bool)
(declare-fun A2 () Bool)
(declare-fun A3 () Bool)
(declare-fun A4 () Bool)
(declare-fun A5 () Bool)
(declare-fun A6 () Bool)
(declare-fun A7 () Bool)
(declare-fun A8 () Bool)
(declare-fun A9 () Bool)
(declare-fun A10 () Bool)
(declare-fun A11 () Bool)
(declare-fun A12 () Bool)
(declare-fun A13 () Bool)
(declare-fun A14 () Bool)
(declare-fun A15 () Bool)
(declare-fun A16 () Bool)
(declare-fun A17 () Bool)
(declare-fun A18 () Bool)
(declare-fun A19 () Bool)
(declare-fun A20 () Bool)
(declare-fun A21 () Bool)
(declare-fun A22 () Bool)
(declare-fun A23 () Bool)
(declare-fun A24 () Bool)
(assert (let ((.def_0 (not A12))) (let ((.def_1 (not A17))) (let ((.def_2 (or .def_1 .def_0))) (let ((.def_3 (not A3))) (let ((.def_4 (and A4 .def_3))) (let ((.def_5 (or .def_4 .def_2))) (let ((.def_6 (not .def_5))) (let ((.def_7 (not A20))) (let ((.def_8 (and A16 .def_7))) (let ((.def_9 (not A22))) (let ((.def_10 (and .def_9 A1))) (let ((.def_11 (and .def_10 .def_8))) (let ((.def_12 (not .def_11))) (let ((.def_13 (or .def_12 .def_6))) (let ((.def_14 (not .def_13))) (let ((.def_15 (not A21))) (let ((.def_16 (and A0 .def_15))) (let ((.def_17 (not A7))) (let ((.def_18 (and .def_17 A22))) (let ((.def_19 (and .def_18 .def_16))) (let ((.def_20 (not .def_19))) (let ((.def_21 (not A9))) (let ((.def_22 (or .def_21 A18))) (let ((.def_23 (not A10))) (let ((.def_24 (or A13 .def_23))) (let ((.def_25 (or .def_24 .def_22))) (let ((.def_26 (and .def_25 .def_20))) (let ((.def_27 (= .def_26 .def_14))) (let ((.def_28 (or A13 A14))) (let ((.def_29 (not .def_28))) (let ((.def_30 (and A17 A8))) (let ((.def_31 (or .def_30 .def_29))) (let ((.def_32 (not A23))) (let ((.def_33 (and A12 .def_32))) (let ((.def_34 (not .def_33))) (let ((.def_35 (and .def_32 .def_3))) (let ((.def_36 (and .def_35 .def_34))) (let ((.def_37 (not .def_36))) (let ((.def_38 (or .def_37 .def_31))) (let ((.def_39 (not .def_38))) (let ((.def_40 (not A2))) (let ((.def_41 (and .def_40 A1))) (let ((.def_42 (not A5))) (let ((.def_43 (and A13 .def_42))) (let ((.def_44 (or .def_43 .def_41))) (let ((.def_45 (not .def_44))) (let ((.def_46 (not A8))) (let ((.def_47 (or .def_46 .def_9))) (let ((.def_48 (not .def_47))) (let ((.def_49 (= .def_17 A10))) (let ((.def_50 (not .def_49))) (let ((.def_51 (or .def_50 .def_48))) (let ((.def_52 (or .def_51 .def_45))) (let ((.def_53 (not .def_52))) (let ((.def_54 (and .def_53 .def_39))) (let ((.def_55 (not .def_54))) (let ((.def_56 (or .def_55 .def_27))) (let ((.def_57 (= .def_7 A23))) (let ((.def_58 (not .def_57))) (let ((.def_59 (and A14 A8))) (let ((.def_60 (and .def_59 .def_58))) (let ((.def_61 (and A21 A0))) (let ((.def_62 (and .def_3 A23))) (let ((.def_63 (or .def_62 .def_61))) (let ((.def_64 (not .def_63))) (let ((.def_65 (or .def_64 .def_60))) (let ((.def_66 (not A19))) (let ((.def_67 (and .def_66 .def_15))) (let ((.def_68 (and A1 A11))) (let ((.def_69 (not .def_68))) (let ((.def_70 (and .def_69 .def_67))) (let ((.def_71 (not A6))) (let ((.def_72 (or .def_71 A4))) (let ((.def_73 (not .def_72))) (let ((.def_74 (and A9 A0))) (let ((.def_75 (or .def_74 .def_73))) (let ((.def_76 (or .def_75 .def_70))) (let ((.def_77 (not .def_76))) (let ((.def_78 (and .def_77 .def_65))) (let ((.def_79 (not .def_78))) (let ((.def_80 (or A24 .def_66))) (let ((.def_81 (or A18 A17))) (let ((.def_82 (not .def_81))) (let ((.def_83 (or .def_82 .def_80))) (let ((.def_84 (not .def_83))) (let ((.def_85 (and .def_66 A9))) (let ((.def_86 (not A24))) (let ((.def_87 (and .def_86 A7))) (let ((.def_88 (and .def_87 .def_85))) (let ((.def_89 (and .def_88 .def_84))) (let ((.def_90 (not .def_89))) (let ((.def_91 (or A4 .def_86))) (let ((.def_92 (not .def_91))) (let ((.def_93 (not A13))) (let ((.def_94 (and .def_93 .def_3))) (let ((.def_95 (not .def_94))) (let ((.def_96 (and .def_95 .def_92))) (let ((.def_97 (not A15))) (let ((.def_98 (and .def_97 A5))) (let ((.def_99 (not .def_98))) (let ((.def_100 (or .def_86 A4))) (let ((.def_101 (not .def_100))) (let ((.def_102 (and .def_101 .def_99))) (let ((.def_103 (and .def_102 .def_96))) (let ((.def_104 (not .def_103))) (let ((.def_105 (and .def_104 .def_90))) (let ((.def_106 (and .def_105 .def_79))) (let ((.def_107 (not .def_106))) (let ((.def_108 (or .def_107 .def_56))) (let ((.def_109 (not .def_108))) (let ((.def_110 (and .def_15 .def_0))) (let ((.def_111 (or .def_97 A8))) (let ((.def_112 (not .def_111))) (let ((.def_113 (or .def_112 .def_110))) (let ((.def_114 (or A4 A1))) (let ((.def_115 (not .def_114))) (let ((.def_116 (or A0 A19))) (let ((.def_117 (not .def_116))) (let ((.def_118 (= .def_117 .def_115))) (let ((.def_119 (and .def_118 .def_113))) (let ((.def_120 (not .def_119))) (let ((.def_121 (not A1))) (let ((.def_122 (and A2 .def_121))) (let ((.def_123 (not .def_122))) (let ((.def_124 (or .def_21 A1))) (let ((.def_125 (or .def_124 .def_123))) (let ((.def_126 (not .def_125))) (let ((.def_127 (not A11))) (let ((.def_128 (and .def_127 A23))) (let ((.def_129 (or .def_17 .def_127))) (let ((.def_130 (not .def_129))) (let ((.def_131 (or .def_130 .def_128))) (let ((.def_132 (not .def_131))) (let ((.def_133 (or .def_132 .def_126))) (let ((.def_134 (and .def_133 .def_120))) (let ((.def_135 (not .def_134))) (let ((.def_136 (not A14))) (let ((.def_137 (and A11 .def_136))) (let ((.def_138 (not .def_137))) (let ((.def_139 (= A23 A8))) (let ((.def_140 (not .def_139))) (let ((.def_141 (or .def_140 .def_138))) (let ((.def_142 (= A15 .def_86))) (let ((.def_143 (and .def_0 .def_93))) (let ((.def_144 (or .def_143 .def_142))) (let ((.def_145 (and .def_144 .def_141))) (let ((.def_146 (not .def_145))) (let ((.def_147 (or .def_86 A18))) (let ((.def_148 (or A10 A18))) (let ((.def_149 (not .def_148))) (let ((.def_150 (and .def_149 .def_147))) (let ((.def_151 (not .def_150))) (let ((.def_152 (and .def_23 .def_3))) (let ((.def_153 (not .def_152))) (let ((.def_154 (not A4))) (let ((.def_155 (and .def_154 .def_15))) (let ((.def_156 (and .def_155 .def_153))) (let ((.def_157 (and .def_156 .def_151))) (let ((.def_158 (or .def_157 .def_146))) (let ((.def_159 (not .def_158))) (let ((.def_160 (and .def_159 .def_135))) (let ((.def_161 (and .def_127 .def_46))) (let ((.def_162 (or .def_9 .def_21))) (let ((.def_163 (not .def_162))) (let ((.def_164 (or .def_163 .def_161))) (let ((.def_165 (not .def_164))) (let ((.def_166 (and A23 .def_17))) (let ((.def_167 (not .def_166))) (let ((.def_168 (or .def_167 .def_61))) (let ((.def_169 (or .def_168 .def_165))) (let ((.def_170 (and A8 .def_0))) (let ((.def_171 (and A13 .def_7))) (let ((.def_172 (= .def_171 .def_170))) (let ((.def_173 (not .def_172))) (let ((.def_174 (and A21 .def_97))) (let ((.def_175 (not .def_174))) (let ((.def_176 (not A18))) (let ((.def_177 (or .def_176 A1))) (let ((.def_178 (not .def_177))) (let ((.def_179 (and .def_178 .def_175))) (let ((.def_180 (and .def_179 .def_173))) (let ((.def_181 (and .def_180 .def_169))) (let ((.def_182 (not .def_181))) (let ((.def_183 (or .def_3 .def_9))) (let ((.def_184 (= .def_32 .def_42))) (let ((.def_185 (not .def_184))) (let ((.def_186 (= .def_185 .def_183))) (let ((.def_187 (not .def_186))) (let ((.def_188 (or .def_154 A19))) (let ((.def_189 (not .def_188))) (let ((.def_190 (and A11 .def_127))) (let ((.def_191 (or .def_190 .def_189))) (let ((.def_192 (or .def_191 .def_187))) (let ((.def_193 (not .def_192))) (let ((.def_194 (= A23 A11))) (let ((.def_195 (and A6 .def_3))) (let ((.def_196 (and .def_195 .def_194))) (let ((.def_197 (= .def_86 .def_93))) (let ((.def_198 (not .def_197))) (let ((.def_199 (and A8 .def_9))) (let ((.def_200 (or .def_199 .def_198))) (let ((.def_201 (= .def_200 .def_196))) (let ((.def_202 (and .def_201 .def_193))) (let ((.def_203 (or .def_202 .def_182))) (let ((.def_204 (or .def_203 .def_160))) (let ((.def_205 (not .def_204))) (let ((.def_206 (and .def_205 .def_109))) (let ((.def_207 (not .def_206))) .def_207)))))))))))))))))))))))))))))))))))))))))))))))))))))))))))))))))))))))))))))))))))))))))))))))))))))))))))))))))))))))))))))))))))))))))))))))))))))))))))))))))))))))))))))))))))))))))))))))))))))))))))))))))
(check-sat)
